# HF/6-31G(d)

Water — Z-matrix (GaussView-style)

0 1
O
H 1 0.9572
H 1 0.9572 2 104.52
