#p B3LYP/6-31G(d) Opt Freq

Water — Gaussian input (Cartesian)

0 1
O    0.000000   0.000000   0.000000
H    0.957200   0.000000   0.000000
H   -0.240000   0.926600   0.000000
